c turning on binary mode checking
c parsing input formula with 202048 variables and 780980 clauses
c finished parsing, read 16700289 bytes from proof file
c detected empty clause; start verification via backward checking
c 19778 of 780980 clauses in core                            
c 24028 of 453001 lemmas in core using 187992 resolution steps
c 0 RAT lemmas in core; 1516 redundant literals in core lemmas
s VERIFIED
c verification time: 2.474 seconds
